Optimal - objective value -338.00000000
      0 x_0                      0                      44
      1 x_1                      0                       0
      2 x_2                      0                       0
      3 x_3                      0                       0
      4 x_4                      0                       0
      5 x_5                      0                       0
      6 x_6                      1                       0
      7 x_7                      1                       0
      8 x_8                      1                       0
      9 x_9                      1                       0
     10 x_10                     1                     -30
     11 x_11                     1                       0
     12 x_12                     0                       0
     13 x_13                     0                      86
     14 x_14                     0                       0
     15 x_15                     0                       0
     16 x_16                     0                       0
     17 x_17                     0                       0
